NAME: template6.png
TYPE: TSP
DIMENSION: 10
EDGE_WEIGHT_TYPE: EUC_2D
NODE_COORD_SECTION
1 879.5 1403.0
2 1069.5 1403.0
3 879.5 1451.0
4 927.5 1451.0
5 1022.5 1451.0
6 1069.5 1451.0
7 927.5 1498.0
8 974.5 1498.0
9 1022.5 1498.0
10 974.5 1546.0
EOF
